c generated by sgen
p cnf 109 228
-2 -3 -4 0
-1 -3 -4 0
-1 -2 -4 0
-1 -2 -3 0
-6 -7 -8 0
-5 -7 -8 0
-5 -6 -8 0
-5 -6 -7 0
-10 -11 -12 0
-9 -11 -12 0
-9 -10 -12 0
-9 -10 -11 0
-14 -15 -16 0
-13 -15 -16 0
-13 -14 -16 0
-13 -14 -15 0
-18 -19 -20 0
-17 -19 -20 0
-17 -18 -20 0
-17 -18 -19 0
-22 -23 -24 0
-21 -23 -24 0
-21 -22 -24 0
-21 -22 -23 0
-26 -27 -28 0
-25 -27 -28 0
-25 -26 -28 0
-25 -26 -27 0
-30 -31 -32 0
-29 -31 -32 0
-29 -30 -32 0
-29 -30 -31 0
-34 -35 -36 0
-33 -35 -36 0
-33 -34 -36 0
-33 -34 -35 0
-38 -39 -40 0
-37 -39 -40 0
-37 -38 -40 0
-37 -38 -39 0
-42 -43 -44 0
-41 -43 -44 0
-41 -42 -44 0
-41 -42 -43 0
-46 -47 -48 0
-45 -47 -48 0
-45 -46 -48 0
-45 -46 -47 0
-50 -51 -52 0
-49 -51 -52 0
-49 -50 -52 0
-49 -50 -51 0
-54 -55 -56 0
-53 -55 -56 0
-53 -54 -56 0
-53 -54 -55 0
-58 -59 -60 0
-57 -59 -60 0
-57 -58 -60 0
-57 -58 -59 0
-62 -63 -64 0
-61 -63 -64 0
-61 -62 -64 0
-61 -62 -63 0
-66 -67 -68 0
-65 -67 -68 0
-65 -66 -68 0
-65 -66 -67 0
-70 -71 -72 0
-69 -71 -72 0
-69 -70 -72 0
-69 -70 -71 0
-74 -75 -76 0
-73 -75 -76 0
-73 -74 -76 0
-73 -74 -75 0
-78 -79 -80 0
-77 -79 -80 0
-77 -78 -80 0
-77 -78 -79 0
-82 -83 -84 0
-81 -83 -84 0
-81 -82 -84 0
-81 -82 -83 0
-86 -87 -88 0
-85 -87 -88 0
-85 -86 -88 0
-85 -86 -87 0
-90 -91 -92 0
-89 -91 -92 0
-89 -90 -92 0
-89 -90 -91 0
-94 -95 -96 0
-93 -95 -96 0
-93 -94 -96 0
-93 -94 -95 0
-98 -99 -100 0
-97 -99 -100 0
-97 -98 -100 0
-97 -98 -99 0
-102 -103 -104 0
-101 -103 -104 0
-101 -102 -104 0
-101 -102 -103 0
-105 -106 -107 0
-105 -106 -108 0
-105 -106 -109 0
-105 -107 -108 0
-105 -107 -109 0
-105 -108 -109 0
-106 -107 -108 0
-106 -107 -109 0
-106 -108 -109 0
-107 -108 -109 0
66 58 101 0
11 58 101 0
11 66 101 0
11 66 58 0
53 70 7 0
41 70 7 0
41 53 7 0
41 53 70 0
6 17 50 0
60 17 50 0
60 6 50 0
60 6 17 0
89 64 78 0
81 64 78 0
81 89 78 0
81 89 64 0
57 3 72 0
40 3 72 0
40 57 72 0
40 57 3 0
99 13 88 0
1 13 88 0
1 99 88 0
1 99 13 0
73 67 47 0
83 67 47 0
83 73 47 0
83 73 67 0
43 10 105 0
63 10 105 0
63 43 105 0
63 43 10 0
48 62 24 0
86 62 24 0
86 48 24 0
86 48 62 0
26 29 84 0
44 29 84 0
44 26 84 0
44 26 29 0
52 32 14 0
23 32 14 0
23 52 14 0
23 52 32 0
95 56 51 0
75 56 51 0
75 95 51 0
75 95 56 0
22 28 71 0
79 28 71 0
79 22 71 0
79 22 28 0
49 77 42 0
33 77 42 0
33 49 42 0
33 49 77 0
96 87 108 0
19 87 108 0
19 96 108 0
19 96 87 0
80 9 37 0
76 9 37 0
76 80 37 0
76 80 9 0
4 35 65 0
27 35 65 0
27 4 65 0
27 4 35 0
36 31 97 0
12 31 97 0
12 36 97 0
12 36 31 0
91 15 20 0
74 15 20 0
74 91 20 0
74 91 15 0
21 39 100 0
94 39 100 0
94 21 100 0
94 21 39 0
90 98 59 0
54 98 59 0
54 90 59 0
54 90 98 0
61 30 18 0
102 30 18 0
102 61 18 0
102 61 30 0
2 46 104 0
93 46 104 0
93 2 104 0
93 2 46 0
103 85 69 0
34 85 69 0
34 103 69 0
34 103 85 0
106 68 92 0
8 68 92 0
8 106 92 0
8 106 68 0
55 16 109 0
82 16 109 0
82 55 109 0
82 55 16 0
38 25 45 0
38 25 5 0
38 25 107 0
38 45 5 0
38 45 107 0
38 5 107 0
25 45 5 0
25 45 107 0
25 5 107 0
45 5 107 0
